max: xfinal; 


ano0: x01 + x02 = 1;
ano1: x11 + x12 = 1.7 * x01;
ano2: x21 + x22 = 1.7 * x11 + 3 * x02;
ano3: x31 + x32 = 1.7 * x21 + 3 * x12;
ano4: x41 + x42 = 1.7 * x31 + 3 * x22;
ano5: xfinal = 1.7 * x41 + 3 * x32; 
